n_res = 4;
rc = [ 12, 16, 11, 14 ];
n_tasks = 30;
d = [ 7, 10, 10, 4, 1, 10, 5, 3, 3, 1, 9, 5, 6, 8, 4, 9, 3, 10, 10, 3, 7, 3, 4, 3, 5, 10, 1, 2, 1, 9 ];
rr = [| 0, 0, 0, 2, 0, 0, 0, 0, 3, 0, 6, 0, 0, 0, 3, 6, 0, 2, 0, 0, 0, 0, 0, 0, 0, 0, 0, 0, 0, 0
      | 0, 0, 2, 0, 10, 5, 0, 5, 0, 0, 0, 0, 8, 0, 0, 0, 9, 0, 1, 0, 0, 6, 0, 7, 3, 4, 0, 10, 0, 0
      | 0, 0, 0, 0, 0, 0, 0, 0, 0, 1, 0, 0, 0, 0, 0, 0, 0, 0, 0, 6, 0, 0, 1, 0, 0, 0, 0, 0, 5, 7
      | 6, 10, 0, 0, 0, 0, 10, 0, 0, 0, 0, 3, 0, 1, 0, 0, 0, 0, 0, 0, 8, 0, 0, 0, 0, 0, 6, 0, 0, 0 |];
suc = [ { 2 }, 
        { 1 }, 
        { 4 }, 
        { 3 }, 
        { 6 }, 
        { 5 }, 
        { 8 }, 
        { 7 }, 
        { 10 }, 
        { 9 }, 
        { 12 }, 
        { 11 }, 
        { 14 }, 
        { 13 }, 
        { 16 }, 
        { 15 }, 
        { 18 }, 
        { 17 }, 
        { 20 }, 
        { 19 }, 
        { 22 }, 
        { 21 }, 
        { 24 }, 
        { 23 }, 
        { 26 }, 
        { 25 }, 
        { 28 }, 
        { 27 }, 
        { 30 }, 
        { 29 }]; 
